<?xml version = "1.0" encoding="UTF-8" standalone="yes"?>
<CPLEXSolution version="1.2">
 <header
   problemName="IloCplex"
   objectiveValue="13715"
   solutionTypeValue="1"
   solutionTypeString="basic"
   solutionStatusValue="1"
   solutionStatusString="optimal"
   solutionMethodString="dual"
   primalFeasible="1"
   dualFeasible="1"
   simplexIterations="32"
   writeLevel="1"/>
 <quality
   epRHS="9.9999999999999995e-07"
   epOpt="9.9999999999999995e-07"
   maxPrimalInfeas="0"
   maxDualInfeas="0"
   maxPrimalResidual="0"
   maxDualResidual="0"
   maxX="203"
   maxPi="1100"
   maxSlack="152"
   maxRedCost="1074"
   kappa="727.69230769230774"/>
 <linearConstraints>
  <constraint name="ProductionCapacity(1)" index="0" status="BS" slack="101" dual="0"/>
  <constraint name="ProductionCapacity(2)" index="1" status="LL" slack="0" dual="-3"/>
  <constraint name="ProductionCapacity(3)" index="2" status="LL" slack="0" dual="-6"/>
  <constraint name="PlantInventoryCapacity(1)" index="3" status="BS" slack="70" dual="0"/>
  <constraint name="PlantInventoryCapacity(2)" index="4" status="BS" slack="70" dual="0"/>
  <constraint name="PlantInventoryCapacity(3)" index="5" status="BS" slack="152" dual="0"/>
  <constraint name="PlantInventoryBalance(1)" index="6" status="LL" slack="0" dual="-30"/>
  <constraint name="PlantInventoryBalance(2)" index="7" status="LL" slack="0" dual="-33"/>
  <constraint name="PlantInventoryBalance(3)" index="8" status="LL" slack="0" dual="-36"/>
  <constraint name="WarehouseInventoryCapacity(1,1,1)" index="9" status="BS" slack="105.80000000000001" dual="0"/>
  <constraint name="WarehouseInventoryCapacity(2,1,1)" index="10" status="BS" slack="83.800000000000011" dual="0"/>
  <constraint name="WarehouseInventoryCapacity(1,2,1)" index="11" status="BS" slack="136.80000000000001" dual="0"/>
  <constraint name="WarehouseInventoryCapacity(2,2,1)" index="12" status="BS" slack="119.80000000000001" dual="0"/>
  <constraint name="WarehouseInventoryCapacity(1,3,1)" index="13" status="BS" slack="136.80000000000001" dual="0"/>
  <constraint name="WarehouseInventoryCapacity(2,3,1)" index="14" status="BS" slack="136.80000000000001" dual="0"/>
  <constraint name="WarehouseInventoryBalance(1,1,1)" index="15" status="LL" slack="0" dual="-30"/>
  <constraint name="WarehouseInventoryBalance(2,1,1)" index="16" status="LL" slack="0" dual="-30"/>
  <constraint name="WarehouseInventoryBalance(1,2,1)" index="17" status="LL" slack="0" dual="-34"/>
  <constraint name="WarehouseInventoryBalance(2,2,1)" index="18" status="LL" slack="0" dual="-33"/>
  <constraint name="WarehouseInventoryBalance(1,3,1)" index="19" status="LL" slack="0" dual="-36"/>
  <constraint name="WarehouseInventoryBalance(2,3,1)" index="20" status="LL" slack="0" dual="-36"/>
  <constraint name="CustomerInventoryBalance(3,1,1)" index="21" status="LL" slack="0" dual="-30"/>
  <constraint name="CustomerInventoryBalance(4,1,1)" index="22" status="LL" slack="0" dual="-690"/>
  <constraint name="CustomerInventoryBalance(5,1,1)" index="23" status="LL" slack="0" dual="-27"/>
  <constraint name="CustomerInventoryBalance(6,1,1)" index="24" status="LL" slack="0" dual="-1100"/>
  <constraint name="CustomerInventoryBalance(7,1,1)" index="25" status="LL" slack="0" dual="-30"/>
  <constraint name="CustomerInventoryBalance(8,1,1)" index="26" status="LL" slack="0" dual="-30"/>
  <constraint name="CustomerInventoryBalance(9,1,1)" index="27" status="LL" slack="0" dual="-26"/>
  <constraint name="CustomerInventoryBalance(10,1,1)" index="28" status="LL" slack="0" dual="-30"/>
  <constraint name="CustomerInventoryBalance(11,1,1)" index="29" status="LL" slack="0" dual="-24"/>
  <constraint name="CustomerInventoryBalance(12,1,1)" index="30" status="LL" slack="0" dual="-28"/>
  <constraint name="CustomerInventoryBalance(3,2,1)" index="31" status="LL" slack="0" dual="-36"/>
  <constraint name="CustomerInventoryBalance(4,2,1)" index="32" status="LL" slack="0" dual="-33"/>
  <constraint name="CustomerInventoryBalance(5,2,1)" index="33" status="LL" slack="0" dual="-34"/>
  <constraint name="CustomerInventoryBalance(6,2,1)" index="34" status="LL" slack="0" dual="-34"/>
  <constraint name="CustomerInventoryBalance(7,2,1)" index="35" status="LL" slack="0" dual="-36"/>
  <constraint name="CustomerInventoryBalance(8,2,1)" index="36" status="LL" slack="0" dual="-36"/>
  <constraint name="CustomerInventoryBalance(9,2,1)" index="37" status="LL" slack="0" dual="-34"/>
  <constraint name="CustomerInventoryBalance(10,2,1)" index="38" status="LL" slack="0" dual="-34"/>
  <constraint name="CustomerInventoryBalance(11,2,1)" index="39" status="LL" slack="0" dual="-33"/>
  <constraint name="CustomerInventoryBalance(12,2,1)" index="40" status="LL" slack="0" dual="-35"/>
  <constraint name="CustomerInventoryBalance(3,3,1)" index="41" status="LL" slack="0" dual="-42"/>
  <constraint name="CustomerInventoryBalance(4,3,1)" index="42" status="LL" slack="0" dual="-36"/>
  <constraint name="CustomerInventoryBalance(5,3,1)" index="43" status="LL" slack="0" dual="-36"/>
  <constraint name="CustomerInventoryBalance(6,3,1)" index="44" status="LL" slack="0" dual="-42"/>
  <constraint name="CustomerInventoryBalance(7,3,1)" index="45" status="LL" slack="0" dual="-42"/>
  <constraint name="CustomerInventoryBalance(8,3,1)" index="46" status="LL" slack="0" dual="-42"/>
  <constraint name="CustomerInventoryBalance(9,3,1)" index="47" status="LL" slack="0" dual="-42"/>
  <constraint name="CustomerInventoryBalance(10,3,1)" index="48" status="LL" slack="0" dual="-42"/>
  <constraint name="CustomerInventoryBalance(11,3,1)" index="49" status="LL" slack="0" dual="-42"/>
  <constraint name="CustomerInventoryBalance(12,3,1)" index="50" status="LL" slack="0" dual="-42"/>
  <constraint name="CustomerInventoryCapacity(3,1,1)" index="51" status="BS" slack="6" dual="0"/>
  <constraint name="CustomerInventoryCapacity(4,1,1)" index="52" status="BS" slack="27" dual="0"/>
  <constraint name="CustomerInventoryCapacity(5,1,1)" index="53" status="BS" slack="30" dual="0"/>
  <constraint name="CustomerInventoryCapacity(6,1,1)" index="54" status="BS" slack="8" dual="0"/>
  <constraint name="CustomerInventoryCapacity(7,1,1)" index="55" status="BS" slack="12" dual="0"/>
  <constraint name="CustomerInventoryCapacity(8,1,1)" index="56" status="BS" slack="48" dual="0"/>
  <constraint name="CustomerInventoryCapacity(9,1,1)" index="57" status="BS" slack="77" dual="0"/>
  <constraint name="CustomerInventoryCapacity(10,1,1)" index="58" status="BS" slack="14" dual="0"/>
  <constraint name="CustomerInventoryCapacity(11,1,1)" index="59" status="BS" slack="67" dual="0"/>
  <constraint name="CustomerInventoryCapacity(12,1,1)" index="60" status="BS" slack="66" dual="0"/>
  <constraint name="CustomerInventoryCapacity(3,2,1)" index="61" status="BS" slack="7" dual="0"/>
  <constraint name="CustomerInventoryCapacity(4,2,1)" index="62" status="BS" slack="33" dual="0"/>
  <constraint name="CustomerInventoryCapacity(5,2,1)" index="63" status="BS" slack="30" dual="0"/>
  <constraint name="CustomerInventoryCapacity(6,2,1)" index="64" status="BS" slack="7" dual="0"/>
  <constraint name="CustomerInventoryCapacity(7,2,1)" index="65" status="BS" slack="12" dual="0"/>
  <constraint name="CustomerInventoryCapacity(8,2,1)" index="66" status="BS" slack="61" dual="0"/>
  <constraint name="CustomerInventoryCapacity(9,2,1)" index="67" status="BS" slack="103" dual="0"/>
  <constraint name="CustomerInventoryCapacity(10,2,1)" index="68" status="BS" slack="15" dual="0"/>
  <constraint name="CustomerInventoryCapacity(11,2,1)" index="69" status="BS" slack="82" dual="0"/>
  <constraint name="CustomerInventoryCapacity(12,2,1)" index="70" status="BS" slack="87" dual="0"/>
  <constraint name="CustomerInventoryCapacity(3,3,1)" index="71" status="BS" slack="8" dual="0"/>
  <constraint name="CustomerInventoryCapacity(4,3,1)" index="72" status="BS" slack="28" dual="0"/>
  <constraint name="CustomerInventoryCapacity(5,3,1)" index="73" status="BS" slack="29" dual="0"/>
  <constraint name="CustomerInventoryCapacity(6,3,1)" index="74" status="BS" slack="7" dual="0"/>
  <constraint name="CustomerInventoryCapacity(7,3,1)" index="75" status="BS" slack="27" dual="0"/>
  <constraint name="CustomerInventoryCapacity(8,3,1)" index="76" status="BS" slack="79" dual="0"/>
  <constraint name="CustomerInventoryCapacity(9,3,1)" index="77" status="BS" slack="108" dual="0"/>
  <constraint name="CustomerInventoryCapacity(10,3,1)" index="78" status="BS" slack="13" dual="0"/>
  <constraint name="CustomerInventoryCapacity(11,3,1)" index="79" status="BS" slack="98" dual="0"/>
  <constraint name="CustomerInventoryCapacity(12,3,1)" index="80" status="BS" slack="85" dual="0"/>
  <constraint name="WarehouseDelivery(1,1,1)" index="81" status="BS" slack="91.800000000000011" dual="0"/>
  <constraint name="WarehouseDelivery(2,1,1)" index="82" status="LL" slack="0" dual="0"/>
  <constraint name="WarehouseDelivery(1,2,1)" index="83" status="LL" slack="0" dual="0"/>
  <constraint name="WarehouseDelivery(2,2,1)" index="84" status="BS" slack="60.800000000000011" dual="0"/>
  <constraint name="WarehouseDelivery(1,1,2)" index="85" status="LL" slack="0" dual="-1"/>
  <constraint name="WarehouseDelivery(2,1,2)" index="86" status="BS" slack="0" dual="0"/>
  <constraint name="WarehouseDelivery(1,2,2)" index="87" status="LL" slack="0" dual="-1"/>
  <constraint name="WarehouseDelivery(2,2,2)" index="88" status="LL" slack="0" dual="0"/>
  <constraint name="WarehouseDelivery(1,1,3)" index="89" status="BS" slack="54.800000000000011" dual="0"/>
  <constraint name="WarehouseDelivery(2,1,3)" index="90" status="BS" slack="0" dual="0"/>
  <constraint name="WarehouseDelivery(1,2,3)" index="91" status="LL" slack="0" dual="0"/>
  <constraint name="WarehouseDelivery(2,2,3)" index="92" status="LL" slack="0" dual="0"/>
  <constraint name="VehicleCapacityPlant(1,1)" index="93" status="BS" slack="57" dual="0"/>
  <constraint name="VehicleCapacityPlant(2,1)" index="94" status="BS" slack="26" dual="0"/>
  <constraint name="VehicleCapacityPlant(1,2)" index="95" status="BS" slack="102" dual="0"/>
  <constraint name="VehicleCapacityPlant(2,2)" index="96" status="BS" slack="102" dual="0"/>
  <constraint name="VehicleCapacityPlant(1,3)" index="97" status="BS" slack="20" dual="0"/>
  <constraint name="VehicleCapacityPlant(2,3)" index="98" status="BS" slack="102" dual="0"/>
  <constraint name="CustomerVisit(3,1,1,1)" index="99" status="LL" slack="0" dual="0"/>
  <constraint name="CustomerVisit(4,1,1,1)" index="100" status="LL" slack="0" dual="-660"/>
  <constraint name="CustomerVisit(6,1,1,1)" index="101" status="LL" slack="0" dual="-1070"/>
  <constraint name="CustomerVisit(7,1,1,1)" index="102" status="LL" slack="0" dual="0"/>
  <constraint name="CustomerVisit(8,1,1,1)" index="103" status="LL" slack="0" dual="0"/>
  <constraint name="CustomerVisit(9,1,1,1)" index="104" status="LL" slack="0" dual="4"/>
  <constraint name="CustomerVisit(10,1,1,1)" index="105" status="LL" slack="0" dual="0"/>
  <constraint name="CustomerVisit(11,1,1,1)" index="106" status="LL" slack="0" dual="6"/>
  <constraint name="CustomerVisit(12,1,1,1)" index="107" status="LL" slack="0" dual="2"/>
  <constraint name="CustomerVisit(3,2,1,1)" index="108" status="LL" slack="0" dual="0"/>
  <constraint name="CustomerVisit(4,2,1,1)" index="109" status="LL" slack="0" dual="-660"/>
  <constraint name="CustomerVisit(5,2,1,1)" index="110" status="LL" slack="0" dual="3"/>
  <constraint name="CustomerVisit(6,2,1,1)" index="111" status="LL" slack="0" dual="-1070"/>
  <constraint name="CustomerVisit(7,2,1,1)" index="112" status="LL" slack="0" dual="0"/>
  <constraint name="CustomerVisit(9,2,1,1)" index="113" status="LL" slack="0" dual="4"/>
  <constraint name="CustomerVisit(11,2,1,1)" index="114" status="LL" slack="0" dual="6"/>
  <constraint name="CustomerVisit(12,2,1,1)" index="115" status="LL" slack="0" dual="2"/>
  <constraint name="CustomerVisit(3,1,2,1)" index="116" status="LL" slack="0" dual="-2"/>
  <constraint name="CustomerVisit(4,1,2,1)" index="117" status="LL" slack="0" dual="1"/>
  <constraint name="CustomerVisit(5,1,2,1)" index="118" status="LL" slack="0" dual="0"/>
  <constraint name="CustomerVisit(6,1,2,1)" index="119" status="LL" slack="0" dual="0"/>
  <constraint name="CustomerVisit(7,1,2,1)" index="120" status="LL" slack="0" dual="-2"/>
  <constraint name="CustomerVisit(8,1,2,1)" index="121" status="LL" slack="0" dual="-2"/>
  <constraint name="CustomerVisit(9,1,2,1)" index="122" status="BS" slack="0" dual="0"/>
  <constraint name="CustomerVisit(10,1,2,1)" index="123" status="LL" slack="0" dual="0"/>
  <constraint name="CustomerVisit(11,1,2,1)" index="124" status="LL" slack="0" dual="1"/>
  <constraint name="CustomerVisit(12,1,2,1)" index="125" status="LL" slack="0" dual="-1"/>
  <constraint name="CustomerVisit(3,2,2,1)" index="126" status="LL" slack="0" dual="-2"/>
  <constraint name="CustomerVisit(4,2,2,1)" index="127" status="LL" slack="0" dual="1"/>
  <constraint name="CustomerVisit(7,2,2,1)" index="128" status="LL" slack="0" dual="-2"/>
  <constraint name="CustomerVisit(8,2,2,1)" index="129" status="LL" slack="0" dual="-2"/>
  <constraint name="CustomerVisit(9,2,2,1)" index="130" status="LL" slack="0" dual="0"/>
  <constraint name="CustomerVisit(11,2,2,1)" index="131" status="LL" slack="0" dual="1"/>
  <constraint name="CustomerVisit(12,2,2,1)" index="132" status="LL" slack="0" dual="-1"/>
  <constraint name="CustomerVisit(3,1,3,1)" index="133" status="LL" slack="0" dual="-6"/>
  <constraint name="CustomerVisit(4,1,3,1)" index="134" status="LL" slack="0" dual="0"/>
  <constraint name="CustomerVisit(6,1,3,1)" index="135" status="LL" slack="0" dual="-6"/>
  <constraint name="CustomerVisit(7,1,3,1)" index="136" status="LL" slack="0" dual="-6"/>
  <constraint name="CustomerVisit(8,1,3,1)" index="137" status="LL" slack="0" dual="-6"/>
  <constraint name="CustomerVisit(9,1,3,1)" index="138" status="LL" slack="0" dual="-6"/>
  <constraint name="CustomerVisit(10,1,3,1)" index="139" status="LL" slack="0" dual="-6"/>
  <constraint name="CustomerVisit(11,1,3,1)" index="140" status="LL" slack="0" dual="-6"/>
  <constraint name="CustomerVisit(12,1,3,1)" index="141" status="LL" slack="0" dual="-6"/>
  <constraint name="CustomerVisit(4,2,3,1)" index="142" status="LL" slack="0" dual="6"/>
  <constraint name="CustomerVisit(5,2,3,1)" index="143" status="LL" slack="0" dual="6"/>
  <constraint name="CustomerVisit(7,2,3,1)" index="144" status="LL" slack="0" dual="0"/>
  <constraint name="CustomerVisit(8,2,3,1)" index="145" status="LL" slack="0" dual="0"/>
  <constraint name="CustomerVisit(11,2,3,1)" index="146" status="LL" slack="0" dual="0"/>
  <constraint name="CustomerVisit(4,3,1,1)" index="147" status="LL" slack="0" dual="-660"/>
  <constraint name="CustomerVisit(5,3,1,1)" index="148" status="LL" slack="0" dual="3"/>
  <constraint name="CustomerVisit(6,3,1,1)" index="149" status="LL" slack="0" dual="-1070"/>
  <constraint name="CustomerVisit(8,3,1,1)" index="150" status="LL" slack="0" dual="0"/>
  <constraint name="CustomerVisit(9,3,1,1)" index="151" status="LL" slack="0" dual="4"/>
  <constraint name="CustomerVisit(10,3,1,1)" index="152" status="LL" slack="0" dual="0"/>
  <constraint name="CustomerVisit(11,3,1,1)" index="153" status="BS" slack="0" dual="0"/>
  <constraint name="CustomerVisit(12,3,1,1)" index="154" status="LL" slack="0" dual="2"/>
  <constraint name="CustomerVisit(3,4,1,1)" index="155" status="LL" slack="0" dual="0"/>
  <constraint name="CustomerVisit(4,4,1,1)" index="156" status="LL" slack="0" dual="-660"/>
  <constraint name="CustomerVisit(5,4,1,1)" index="157" status="LL" slack="0" dual="3"/>
  <constraint name="CustomerVisit(6,4,1,1)" index="158" status="LL" slack="0" dual="-1070"/>
  <constraint name="CustomerVisit(7,4,1,1)" index="159" status="LL" slack="0" dual="0"/>
  <constraint name="CustomerVisit(8,4,1,1)" index="160" status="LL" slack="0" dual="0"/>
  <constraint name="CustomerVisit(9,4,1,1)" index="161" status="BS" slack="0" dual="0"/>
  <constraint name="CustomerVisit(10,4,1,1)" index="162" status="LL" slack="0" dual="0"/>
  <constraint name="CustomerVisit(11,4,1,1)" index="163" status="LL" slack="0" dual="6"/>
  <constraint name="CustomerVisit(12,4,1,1)" index="164" status="BS" slack="0" dual="0"/>
  <constraint name="CustomerVisit(3,3,2,1)" index="165" status="LL" slack="0" dual="-3"/>
  <constraint name="CustomerVisit(5,3,2,1)" index="166" status="LL" slack="0" dual="-1"/>
  <constraint name="CustomerVisit(6,3,2,1)" index="167" status="LL" slack="0" dual="-1"/>
  <constraint name="CustomerVisit(7,3,2,1)" index="168" status="LL" slack="0" dual="-3"/>
  <constraint name="CustomerVisit(8,3,2,1)" index="169" status="LL" slack="0" dual="-3"/>
  <constraint name="CustomerVisit(9,3,2,1)" index="170" status="LL" slack="0" dual="-1"/>
  <constraint name="CustomerVisit(10,3,2,1)" index="171" status="LL" slack="0" dual="-1"/>
  <constraint name="CustomerVisit(11,3,2,1)" index="172" status="BS" slack="0" dual="0"/>
  <constraint name="CustomerVisit(12,3,2,1)" index="173" status="LL" slack="0" dual="-2"/>
  <constraint name="CustomerVisit(4,4,2,1)" index="174" status="LL" slack="0" dual="0"/>
  <constraint name="CustomerVisit(5,4,2,1)" index="175" status="LL" slack="0" dual="-1"/>
  <constraint name="CustomerVisit(6,4,2,1)" index="176" status="LL" slack="0" dual="-1"/>
  <constraint name="CustomerVisit(8,4,2,1)" index="177" status="LL" slack="0" dual="-3"/>
  <constraint name="CustomerVisit(9,4,2,1)" index="178" status="LL" slack="0" dual="-1"/>
  <constraint name="CustomerVisit(10,4,2,1)" index="179" status="LL" slack="0" dual="-1"/>
  <constraint name="CustomerVisit(11,4,2,1)" index="180" status="LL" slack="0" dual="0"/>
  <constraint name="CustomerVisit(12,4,2,1)" index="181" status="LL" slack="0" dual="-2"/>
  <constraint name="CustomerVisit(3,3,3,1)" index="182" status="LL" slack="0" dual="-6"/>
  <constraint name="CustomerVisit(5,3,3,1)" index="183" status="LL" slack="0" dual="0"/>
  <constraint name="CustomerVisit(6,3,3,1)" index="184" status="LL" slack="0" dual="-6"/>
  <constraint name="CustomerVisit(7,3,3,1)" index="185" status="LL" slack="0" dual="-6"/>
  <constraint name="CustomerVisit(8,3,3,1)" index="186" status="LL" slack="0" dual="-6"/>
  <constraint name="CustomerVisit(9,3,3,1)" index="187" status="LL" slack="0" dual="-6"/>
  <constraint name="CustomerVisit(10,3,3,1)" index="188" status="LL" slack="0" dual="-6"/>
  <constraint name="CustomerVisit(11,3,3,1)" index="189" status="LL" slack="0" dual="-6"/>
  <constraint name="CustomerVisit(12,3,3,1)" index="190" status="LL" slack="0" dual="-6"/>
  <constraint name="CustomerVisit(3,4,3,1)" index="191" status="LL" slack="0" dual="-6"/>
  <constraint name="CustomerVisit(4,4,3,1)" index="192" status="LL" slack="0" dual="0"/>
  <constraint name="CustomerVisit(5,4,3,1)" index="193" status="LL" slack="0" dual="0"/>
  <constraint name="CustomerVisit(6,4,3,1)" index="194" status="LL" slack="0" dual="-6"/>
  <constraint name="CustomerVisit(7,4,3,1)" index="195" status="LL" slack="0" dual="-6"/>
  <constraint name="CustomerVisit(8,4,3,1)" index="196" status="LL" slack="0" dual="-6"/>
  <constraint name="CustomerVisit(9,4,3,1)" index="197" status="LL" slack="0" dual="-6"/>
  <constraint name="CustomerVisit(10,4,3,1)" index="198" status="LL" slack="0" dual="-6"/>
  <constraint name="CustomerVisit(11,4,3,1)" index="199" status="LL" slack="0" dual="-6"/>
  <constraint name="CustomerVisit(12,4,3,1)" index="200" status="LL" slack="0" dual="-6"/>
  <constraint name="VehicleCapacityWarehouse(1,1,1,1)" index="201" status="BS" slack="66" dual="0"/>
  <constraint name="VehicleCapacityWarehouse(1,2,1,1)" index="202" status="BS" slack="52" dual="0"/>
  <constraint name="VehicleCapacityWarehouse(2,3,1,1)" index="203" status="BS" slack="43" dual="0"/>
  <constraint name="VehicleCapacityWarehouse(2,4,1,1)" index="204" status="BS" slack="66" dual="0"/>
  <constraint name="VehicleCapacityWarehouse(1,1,2,1)" index="205" status="BS" slack="66" dual="0"/>
  <constraint name="VehicleCapacityWarehouse(1,2,2,1)" index="206" status="BS" slack="35" dual="0"/>
  <constraint name="VehicleCapacityWarehouse(2,3,2,1)" index="207" status="BS" slack="54" dual="0"/>
  <constraint name="VehicleCapacityWarehouse(2,4,2,1)" index="208" status="BS" slack="42" dual="0"/>
  <constraint name="VehicleCapacityWarehouse(1,1,3,1)" index="209" status="BS" slack="50" dual="0"/>
  <constraint name="VehicleCapacityWarehouse(1,2,3,1)" index="210" status="LL" slack="0" dual="-6"/>
  <constraint name="VehicleCapacityWarehouse(2,3,3,1)" index="211" status="BS" slack="49" dual="0"/>
  <constraint name="VehicleCapacityWarehouse(2,4,3,1)" index="212" status="BS" slack="66" dual="0"/>
 </linearConstraints>
 <variables>
  <variable name="p[1]" index="0" status="BS" value="203" reducedCost="0"/>
  <variable name="p[2]" index="1" status="BS" value="0" reducedCost="0"/>
  <variable name="p[3]" index="2" status="BS" value="0" reducedCost="0"/>
  <variable name="I_plant[1]" index="3" status="BS" value="82" reducedCost="0"/>
  <variable name="I_plant[2]" index="4" status="BS" value="82" reducedCost="0"/>
  <variable name="I_plant[3]" index="5" status="LL" value="0" reducedCost="39"/>
  <variable name="I_warehouse[1][1][1]" index="6" status="BS" value="31" reducedCost="0"/>
  <variable name="I_warehouse[1][2][1]" index="7" status="LL" value="0" reducedCost="2"/>
  <variable name="I_warehouse[1][3][1]" index="8" status="LL" value="0" reducedCost="40"/>
  <variable name="I_warehouse[2][1][1]" index="9" status="BS" value="53" reducedCost="0"/>
  <variable name="I_warehouse[2][2][1]" index="10" status="BS" value="17" reducedCost="0"/>
  <variable name="I_warehouse[2][3][1]" index="11" status="LL" value="0" reducedCost="39"/>
  <variable name="I_customer[3][1][1]" index="12" status="BS" value="4" reducedCost="0"/>
  <variable name="I_customer[3][2][1]" index="13" status="BS" value="4" reducedCost="0"/>
  <variable name="I_customer[3][3][1]" index="14" status="LL" value="0" reducedCost="48"/>
  <variable name="I_customer[4][1][1]" index="15" status="LL" value="0" reducedCost="666"/>
  <variable name="I_customer[4][2][1]" index="16" status="LL" value="0" reducedCost="6"/>
  <variable name="I_customer[4][3][1]" index="17" status="LL" value="0" reducedCost="45"/>
  <variable name="I_customer[5][1][1]" index="18" status="BS" value="2" reducedCost="0"/>
  <variable name="I_customer[5][2][1]" index="19" status="LL" value="0" reducedCost="5"/>
  <variable name="I_customer[5][3][1]" index="20" status="LL" value="0" reducedCost="43"/>
  <variable name="I_customer[6][1][1]" index="21" status="LL" value="0" reducedCost="1074"/>
  <variable name="I_customer[6][2][1]" index="22" status="BS" value="0" reducedCost="0"/>
  <variable name="I_customer[6][3][1]" index="23" status="LL" value="0" reducedCost="50"/>
  <variable name="I_customer[7][1][1]" index="24" status="BS" value="12" reducedCost="0"/>
  <variable name="I_customer[7][2][1]" index="25" status="BS" value="12" reducedCost="0"/>
  <variable name="I_customer[7][3][1]" index="26" status="LL" value="0" reducedCost="48"/>
  <variable name="I_customer[8][1][1]" index="27" status="BS" value="35" reducedCost="0"/>
  <variable name="I_customer[8][2][1]" index="28" status="BS" value="17" reducedCost="0"/>
  <variable name="I_customer[8][3][1]" index="29" status="LL" value="0" reducedCost="48"/>
  <variable name="I_customer[9][1][1]" index="30" status="BS" value="29" reducedCost="0"/>
  <variable name="I_customer[9][2][1]" index="31" status="BS" value="9" reducedCost="0"/>
  <variable name="I_customer[9][3][1]" index="32" status="LL" value="0" reducedCost="50"/>
  <variable name="I_customer[10][1][1]" index="33" status="LL" value="0" reducedCost="4"/>
  <variable name="I_customer[10][2][1]" index="34" status="BS" value="0" reducedCost="0"/>
  <variable name="I_customer[10][3][1]" index="35" status="LL" value="0" reducedCost="50"/>
  <variable name="I_customer[11][1][1]" index="36" status="BS" value="32" reducedCost="0"/>
  <variable name="I_customer[11][2][1]" index="37" status="BS" value="16" reducedCost="0"/>
  <variable name="I_customer[11][3][1]" index="38" status="LL" value="0" reducedCost="51"/>
  <variable name="I_customer[12][1][1]" index="39" status="BS" value="23" reducedCost="0"/>
  <variable name="I_customer[12][2][1]" index="40" status="BS" value="2" reducedCost="0"/>
  <variable name="I_customer[12][3][1]" index="41" status="LL" value="0" reducedCost="49"/>
  <variable name="b_customer[3][1][1]" index="42" status="LL" value="0" reducedCost="860"/>
  <variable name="b_customer[3][2][1]" index="43" status="LL" value="0" reducedCost="854"/>
  <variable name="b_customer[3][3][1]" index="44" status="LL" value="0" reducedCost="848"/>
  <variable name="b_customer[4][1][1]" index="45" status="BS" value="3" reducedCost="0"/>
  <variable name="b_customer[4][2][1]" index="46" status="LL" value="0" reducedCost="657"/>
  <variable name="b_customer[4][3][1]" index="47" status="LL" value="0" reducedCost="654"/>
  <variable name="b_customer[5][1][1]" index="48" status="LL" value="0" reducedCost="673"/>
  <variable name="b_customer[5][2][1]" index="49" status="LL" value="0" reducedCost="666"/>
  <variable name="b_customer[5][3][1]" index="50" status="LL" value="0" reducedCost="664"/>
  <variable name="b_customer[6][1][1]" index="51" status="BS" value="3" reducedCost="0"/>
  <variable name="b_customer[6][2][1]" index="52" status="LL" value="0" reducedCost="1066"/>
  <variable name="b_customer[6][3][1]" index="53" status="LL" value="0" reducedCost="1058"/>
  <variable name="b_customer[7][1][1]" index="54" status="LL" value="0" reducedCost="600"/>
  <variable name="b_customer[7][2][1]" index="55" status="LL" value="0" reducedCost="594"/>
  <variable name="b_customer[7][3][1]" index="56" status="LL" value="0" reducedCost="588"/>
  <variable name="b_customer[8][1][1]" index="57" status="LL" value="0" reducedCost="940"/>
  <variable name="b_customer[8][2][1]" index="58" status="LL" value="0" reducedCost="934"/>
  <variable name="b_customer[8][3][1]" index="59" status="LL" value="0" reducedCost="928"/>
  <variable name="b_customer[9][1][1]" index="60" status="LL" value="0" reducedCost="754"/>
  <variable name="b_customer[9][2][1]" index="61" status="LL" value="0" reducedCost="746"/>
  <variable name="b_customer[9][3][1]" index="62" status="LL" value="0" reducedCost="738"/>
  <variable name="b_customer[10][1][1]" index="63" status="LL" value="0" reducedCost="1030"/>
  <variable name="b_customer[10][2][1]" index="64" status="LL" value="0" reducedCost="1026"/>
  <variable name="b_customer[10][3][1]" index="65" status="LL" value="0" reducedCost="1018"/>
  <variable name="b_customer[11][1][1]" index="66" status="LL" value="0" reducedCost="876"/>
  <variable name="b_customer[11][2][1]" index="67" status="LL" value="0" reducedCost="867"/>
  <variable name="b_customer[11][3][1]" index="68" status="LL" value="0" reducedCost="858"/>
  <variable name="b_customer[12][1][1]" index="69" status="LL" value="0" reducedCost="702"/>
  <variable name="b_customer[12][2][1]" index="70" status="LL" value="0" reducedCost="695"/>
  <variable name="b_customer[12][3][1]" index="71" status="LL" value="0" reducedCost="688"/>
  <variable name="q[1][1][1]" index="72" status="BS" value="45" reducedCost="0"/>
  <variable name="q[1][1][2]" index="73" status="BS" value="0" reducedCost="0"/>
  <variable name="q[1][1][3]" index="74" status="BS" value="82" reducedCost="0"/>
  <variable name="q[1][2][1]" index="75" status="BS" value="0" reducedCost="0"/>
  <variable name="q[1][2][2]" index="76" status="BS" value="0" reducedCost="0"/>
  <variable name="q[1][2][3]" index="77" status="BS" value="0" reducedCost="0"/>
  <variable name="q[2][1][1]" index="78" status="BS" value="0" reducedCost="0"/>
  <variable name="q[2][1][2]" index="79" status="LL" value="0" reducedCost="0"/>
  <variable name="q[2][1][3]" index="80" status="LL" value="0" reducedCost="0"/>
  <variable name="q[2][2][1]" index="81" status="BS" value="76" reducedCost="0"/>
  <variable name="q[2][2][2]" index="82" status="BS" value="0" reducedCost="0"/>
  <variable name="q[2][2][3]" index="83" status="BS" value="0" reducedCost="0"/>
  <variable name="w[3][1][1][1]" index="84" status="BS" value="0" reducedCost="0"/>
  <variable name="w[3][1][2][1]" index="85" status="BS" value="0" reducedCost="0"/>
  <variable name="w[3][1][3][1]" index="86" status="BS" value="0" reducedCost="0"/>
  <variable name="w[3][2][1][1]" index="87" status="BS" value="0" reducedCost="0"/>
  <variable name="w[3][2][2][1]" index="88" status="BS" value="0" reducedCost="0"/>
  <variable name="w[3][2][3][1]" index="89" status="BS" value="8" reducedCost="0"/>
  <variable name="w[3][3][1][1]" index="90" status="BS" value="9" reducedCost="0"/>
  <variable name="w[3][3][2][1]" index="91" status="BS" value="0" reducedCost="0"/>
  <variable name="w[3][3][3][1]" index="92" status="BS" value="0" reducedCost="0"/>
  <variable name="w[3][4][1][1]" index="93" status="BS" value="0" reducedCost="0"/>
  <variable name="w[3][4][2][1]" index="94" status="UL" value="9" reducedCost="-3"/>
  <variable name="w[3][4][3][1]" index="95" status="BS" value="0" reducedCost="0"/>
  <variable name="w[4][1][1][1]" index="96" status="BS" value="0" reducedCost="0"/>
  <variable name="w[4][1][2][1]" index="97" status="BS" value="0" reducedCost="0"/>
  <variable name="w[4][1][3][1]" index="98" status="BS" value="0" reducedCost="0"/>
  <variable name="w[4][2][1][1]" index="99" status="BS" value="0" reducedCost="0"/>
  <variable name="w[4][2][2][1]" index="100" status="BS" value="0" reducedCost="0"/>
  <variable name="w[4][2][3][1]" index="101" status="BS" value="0" reducedCost="0"/>
  <variable name="w[4][3][1][1]" index="102" status="BS" value="0" reducedCost="0"/>
  <variable name="w[4][3][2][1]" index="103" status="BS" value="12" reducedCost="0"/>
  <variable name="w[4][3][3][1]" index="104" status="BS" value="17" reducedCost="0"/>
  <variable name="w[4][4][1][1]" index="105" status="BS" value="0" reducedCost="0"/>
  <variable name="w[4][4][2][1]" index="106" status="BS" value="0" reducedCost="0"/>
  <variable name="w[4][4][3][1]" index="107" status="BS" value="0" reducedCost="0"/>
  <variable name="w[5][1][1][1]" index="108" status="LL" value="0" reducedCost="3"/>
  <variable name="w[5][1][2][1]" index="109" status="BS" value="0" reducedCost="0"/>
  <variable name="w[5][1][3][1]" index="110" status="BS" value="16" reducedCost="0"/>
  <variable name="w[5][2][1][1]" index="111" status="BS" value="0" reducedCost="0"/>
  <variable name="w[5][2][2][1]" index="112" status="BS" value="13" reducedCost="0"/>
  <variable name="w[5][2][3][1]" index="113" status="BS" value="0" reducedCost="0"/>
  <variable name="w[5][3][1][1]" index="114" status="BS" value="0" reducedCost="0"/>
  <variable name="w[5][3][2][1]" index="115" status="BS" value="0" reducedCost="0"/>
  <variable name="w[5][3][3][1]" index="116" status="BS" value="0" reducedCost="0"/>
  <variable name="w[5][4][1][1]" index="117" status="BS" value="0" reducedCost="0"/>
  <variable name="w[5][4][2][1]" index="118" status="BS" value="0" reducedCost="0"/>
  <variable name="w[5][4][3][1]" index="119" status="BS" value="0" reducedCost="0"/>
  <variable name="w[6][1][1][1]" index="120" status="BS" value="0" reducedCost="0"/>
  <variable name="w[6][1][2][1]" index="121" status="BS" value="0" reducedCost="0"/>
  <variable name="w[6][1][3][1]" index="122" status="BS" value="0" reducedCost="0"/>
  <variable name="w[6][2][1][1]" index="123" status="BS" value="0" reducedCost="0"/>
  <variable name="w[6][2][2][1]" index="124" status="UL" value="7" reducedCost="-0"/>
  <variable name="w[6][2][3][1]" index="125" status="BS" value="7" reducedCost="0"/>
  <variable name="w[6][3][1][1]" index="126" status="BS" value="0" reducedCost="0"/>
  <variable name="w[6][3][2][1]" index="127" status="BS" value="0" reducedCost="0"/>
  <variable name="w[6][3][3][1]" index="128" status="BS" value="0" reducedCost="0"/>
  <variable name="w[6][4][1][1]" index="129" status="BS" value="0" reducedCost="0"/>
  <variable name="w[6][4][2][1]" index="130" status="BS" value="0" reducedCost="0"/>
  <variable name="w[6][4][3][1]" index="131" status="BS" value="0" reducedCost="0"/>
  <variable name="w[7][1][1][1]" index="132" status="BS" value="0" reducedCost="0"/>
  <variable name="w[7][1][2][1]" index="133" status="BS" value="0" reducedCost="0"/>
  <variable name="w[7][1][3][1]" index="134" status="BS" value="0" reducedCost="0"/>
  <variable name="w[7][2][1][1]" index="135" status="BS" value="0" reducedCost="0"/>
  <variable name="w[7][2][2][1]" index="136" status="BS" value="0" reducedCost="0"/>
  <variable name="w[7][2][3][1]" index="137" status="BS" value="0" reducedCost="0"/>
  <variable name="w[7][3][1][1]" index="138" status="BS" value="14" reducedCost="0"/>
  <variable name="w[7][3][2][1]" index="139" status="BS" value="0" reducedCost="0"/>
  <variable name="w[7][3][3][1]" index="140" status="BS" value="0" reducedCost="0"/>
  <variable name="w[7][4][1][1]" index="141" status="BS" value="0" reducedCost="0"/>
  <variable name="w[7][4][2][1]" index="142" status="UL" value="15" reducedCost="-3"/>
  <variable name="w[7][4][3][1]" index="143" status="BS" value="0" reducedCost="0"/>
  <variable name="w[8][1][1][1]" index="144" status="BS" value="0" reducedCost="0"/>
  <variable name="w[8][1][2][1]" index="145" status="BS" value="0" reducedCost="0"/>
  <variable name="w[8][1][3][1]" index="146" status="BS" value="0" reducedCost="0"/>
  <variable name="w[8][2][1][1]" index="147" status="BS" value="8" reducedCost="0"/>
  <variable name="w[8][2][2][1]" index="148" status="BS" value="0" reducedCost="0"/>
  <variable name="w[8][2][3][1]" index="149" status="BS" value="0" reducedCost="0"/>
  <variable name="w[8][3][1][1]" index="150" status="BS" value="0" reducedCost="0"/>
  <variable name="w[8][3][2][1]" index="151" status="BS" value="0" reducedCost="0"/>
  <variable name="w[8][3][3][1]" index="152" status="BS" value="0" reducedCost="0"/>
  <variable name="w[8][4][1][1]" index="153" status="BS" value="0" reducedCost="0"/>
  <variable name="w[8][4][2][1]" index="154" status="BS" value="0" reducedCost="0"/>
  <variable name="w[8][4][3][1]" index="155" status="BS" value="0" reducedCost="0"/>
  <variable name="w[9][1][1][1]" index="156" status="BS" value="0" reducedCost="0"/>
  <variable name="w[9][1][2][1]" index="157" status="LL" value="0" reducedCost="0"/>
  <variable name="w[9][1][3][1]" index="158" status="BS" value="0" reducedCost="0"/>
  <variable name="w[9][2][1][1]" index="159" status="BS" value="0" reducedCost="0"/>
  <variable name="w[9][2][2][1]" index="160" status="BS" value="0" reducedCost="0"/>
  <variable name="w[9][2][3][1]" index="161" status="BS" value="15" reducedCost="0"/>
  <variable name="w[9][3][1][1]" index="162" status="BS" value="0" reducedCost="0"/>
  <variable name="w[9][3][2][1]" index="163" status="BS" value="0" reducedCost="0"/>
  <variable name="w[9][3][3][1]" index="164" status="BS" value="0" reducedCost="0"/>
  <variable name="w[9][4][1][1]" index="165" status="LL" value="0" reducedCost="4"/>
  <variable name="w[9][4][2][1]" index="166" status="BS" value="0" reducedCost="0"/>
  <variable name="w[9][4][3][1]" index="167" status="BS" value="0" reducedCost="0"/>
  <variable name="w[10][1][1][1]" index="168" status="BS" value="0" reducedCost="0"/>
  <variable name="w[10][1][2][1]" index="169" status="BS" value="0" reducedCost="0"/>
  <variable name="w[10][1][3][1]" index="170" status="BS" value="0" reducedCost="0"/>
  <variable name="w[10][2][1][1]" index="171" status="BS" value="6" reducedCost="0"/>
  <variable name="w[10][2][2][1]" index="172" status="UL" value="11" reducedCost="-0"/>
  <variable name="w[10][2][3][1]" index="173" status="BS" value="13" reducedCost="0"/>
  <variable name="w[10][3][1][1]" index="174" status="BS" value="0" reducedCost="0"/>
  <variable name="w[10][3][2][1]" index="175" status="BS" value="0" reducedCost="0"/>
  <variable name="w[10][3][3][1]" index="176" status="BS" value="0" reducedCost="0"/>
  <variable name="w[10][4][1][1]" index="177" status="BS" value="0" reducedCost="0"/>
  <variable name="w[10][4][2][1]" index="178" status="BS" value="0" reducedCost="0"/>
  <variable name="w[10][4][3][1]" index="179" status="BS" value="0" reducedCost="0"/>
  <variable name="w[11][1][1][1]" index="180" status="BS" value="0" reducedCost="0"/>
  <variable name="w[11][1][2][1]" index="181" status="BS" value="0" reducedCost="0"/>
  <variable name="w[11][1][3][1]" index="182" status="BS" value="0" reducedCost="0"/>
  <variable name="w[11][2][1][1]" index="183" status="BS" value="0" reducedCost="0"/>
  <variable name="w[11][2][2][1]" index="184" status="BS" value="0" reducedCost="0"/>
  <variable name="w[11][2][3][1]" index="185" status="BS" value="0" reducedCost="0"/>
  <variable name="w[11][3][1][1]" index="186" status="LL" value="0" reducedCost="6"/>
  <variable name="w[11][3][2][1]" index="187" status="BS" value="0" reducedCost="0"/>
  <variable name="w[11][3][3][1]" index="188" status="BS" value="0" reducedCost="0"/>
  <variable name="w[11][4][1][1]" index="189" status="BS" value="0" reducedCost="0"/>
  <variable name="w[11][4][2][1]" index="190" status="BS" value="0" reducedCost="0"/>
  <variable name="w[11][4][3][1]" index="191" status="BS" value="0" reducedCost="0"/>
  <variable name="w[12][1][1][1]" index="192" status="BS" value="0" reducedCost="0"/>
  <variable name="w[12][1][2][1]" index="193" status="BS" value="0" reducedCost="0"/>
  <variable name="w[12][1][3][1]" index="194" status="BS" value="0" reducedCost="0"/>
  <variable name="w[12][2][1][1]" index="195" status="BS" value="0" reducedCost="0"/>
  <variable name="w[12][2][2][1]" index="196" status="BS" value="0" reducedCost="0"/>
  <variable name="w[12][2][3][1]" index="197" status="BS" value="23" reducedCost="0"/>
  <variable name="w[12][3][1][1]" index="198" status="BS" value="0" reducedCost="0"/>
  <variable name="w[12][3][2][1]" index="199" status="BS" value="0" reducedCost="0"/>
  <variable name="w[12][3][3][1]" index="200" status="BS" value="0" reducedCost="0"/>
  <variable name="w[12][4][1][1]" index="201" status="LL" value="0" reducedCost="2"/>
  <variable name="w[12][4][2][1]" index="202" status="BS" value="0" reducedCost="0"/>
  <variable name="w[12][4][3][1]" index="203" status="BS" value="0" reducedCost="0"/>
 </variables>
 <objectiveValues>
  <objective index="0" name="obj1" value="13715"/>
 </objectiveValues>
</CPLEXSolution>
